&projwfc
outdir = './tmp/'
prefix = 'mos2'
/