&DOS
outdir = './tmp/'
prefix = 'mos2'
fildos = 'mos2.dos'
/