&CONTROL
calculation   = 'relax'
pseudo_dir    = '/public3/home/a2s002871/MoS2/pseudo/'
outdir        = './tmp/'
prefix        = 'MoS2'
etot_conv_thr = 1.0D-5
forc_conv_thr = 1.0D-4
/
&SYSTEM
ibrav         = 4
a             = 3.19
c             = 15
nat           = 3
ntyp          = 2
occupations   = 'smearing'
smearing      = 'mv'
degauss       = 0.2
ecutwfc       = 60
/
&ELECTRONS
mixing_beta   = 0.7
conv_thr      = 1.0D-9
/
&IONS
ion_dynamics  = 'bfgs'
/
ATOMIC_SPECIES
Mo  95.95  Mo.pbe-spn-rrkjus_psl.1.0.0.UPF
S   32.06  S.pbe-n-rrkjus_psl.1.0.0.UPF
ATOMIC_POSITIONS (crystal)
Mo       0.333333333   0.666666667   0.500000000
S        0.666666667   0.333333333   0.547000000
S        0.666666667   0.333333333   0.453000000
K_POINTS(automatic)
12 12 1 0 0 0