phonon calc.
&INPUTPH
outdir = './tmp/'
prefix = 'mos2'
tr2_ph = 1d-14
ldisp  = .true.
nq1    = 6
nq2    = 6
nq3    = 1
fildyn = 'mos2.dyn'
epsil = .true.
lraman = .true.
/
