&INPUT
fildyn = 'mos2.dyn'
zasr   = 'crystal'
flfrc  = 'mos2.fc'
/